&CONTROL
  calculation  = "scf",
  prefix       = "benzene",
  outdir       = "./out",
  pseudo_dir   = "../../../../pseudo",
  do_epcdft    = .true.,
  verbosity = "high" 
  wf_collect = .true.
!restart_mode='restart'
/
&SYSTEM
  nosym = .true.
  ibrav     = 1,
  a         = 20,
  nat       = 13,
  ntyp      = 3,
  ecutwfc   = 80,
  tot_charge = -1
  nspin   = 2,
  tot_magnetization = 0
  hirshfeld = .TRUE.
  donor_start = 13
  donor_end = 13
  acceptor_start=1
  acceptor_end = 12
  epcdft_amp        = 3e-01,
  epcdft_charge  = 1.,
  epcdft_thr = 1.0E-02
  assume_isolated='mt',
!  occupations='smearing'
!smearing='gaussian'
!degauss=0.3
nbnd=40
/
&ELECTRONS
!startingpot = 'file'
!startingwfc = 'file'
conv_thr    = 1.D-8,
mixing_beta = 0.30,
/
K_POINTS {Gamma}

ATOMIC_SPECIES
H  0.00d0 H.pbe-mt_fhi.UPF
Cl 0.00d0 Cl.pbe-mt_fhi.UPF
C  0.00d0 C.pbe-mt_fhi.UPF

ATOMIC_POSITIONS (angstrom)
 C  11.39717   9.90690   9.76923
 C  10.69873  11.11724   9.76923
 C   9.30127  11.11724   9.76923
 C   8.60283   9.90690   9.76923
 C   9.30127   8.69655   9.76923
 C  10.69873   8.69655   9.76923
 H  12.48839   9.90690   9.76923
 H  11.24465  12.06204   9.76923
 H   8.75535  12.06204   9.76923
 H   7.51161   9.90690   9.76923
 H   8.75535   7.75176   9.76923
 H  11.24465   7.75176   9.76923
Cl  10.00000  11.11724  12.76923

