&INPUTPP
  prefix       = "benzene",
  outdir       = "./out",
  prefix2      = "cl",
  outdir2      = "./out",
  occup1       = 19
  occup2       = 19
  occdown1     = 18
  occdown2     = 18
  debug        = .true.
  s_spin       = .true.
  det_by_zgedi = .true.
  free1 =-107.33121354
  free2 =-103.01981744
  cor1  = 1.95547818920155
  cor2  = -2.33379657789745
/
