&INPUTPP
  prefix       = "left",
  outdir       = "./out",
  prefix2      = "right",
  outdir2      = "./out",
  occup1       = 12
  occup2       = 12
  occdown1     = 11
  occdown2     = 11
  debug        = .true.
  s_spin       = .true.
  det_by_zgedi = .true.
  do_epcdft = .true.
  hirshfeld = .true.
  free1 = -220.53294049
  free2 = -220.53294049 
/

