&CONTROL
  calculation  = "scf",
  prefix       = "left",
  outdir       = "./out",
  pseudo_dir   = "../pseudo",
  verbosity = "high" 
  wf_collect = .true.
/
&SYSTEM
  nosym = .true.
  nbnd = 14
  ibrav = 1,
  a = 14,
  nat = 2,
  ntyp = 1,
  ecutwfc = 80,
  tot_charge = +1
  nspin = 2,
  tot_magnetization = 1
/
&ELECTRONS
 ! startingpot = 'file'
 ! startingwfc = 'file'
  conv_thr    = 1.D-8,
  mixing_beta = 0.30,
/
EPCDFT
1 1.D-6 1.D-2
delta_charge 1 1 2 2 1.0 0.313904

K_POINTS {Gamma}

ATOMIC_SPECIES
Zn 0.0 Zn.pbe-mt_fhi.UPF
ATOMIC_POSITIONS (angstrom)
Zn 0 0 0
Zn 5 0 0
