&CONTROL
calculation =   "scf",
nstep=500,
max_seconds=170000,
outdir="out"
pseudo_dir="./"
prefix='zn_05_right'
wf_collect=.TRUE.
/
&SYSTEM
ibrav = 0,
nat  =  2 ,
ntyp  =  1 ,
nbnd  =  30,
ecutwfc  =  60.0 ,
input_dft = "PBE"
assume_isolated='mt'
nspin = 2,
tot_magnetization = 1
tot_charge=1
/
&ELECTRONS
electron_maxstep = 300
conv_thr    = 1.D-12,
diago_full_acc = .true.
/
&IONS
/
&CELL
/
K_POINTS gamma
ATOMIC_SPECIES
Zn 0.0 Zn_ONCV_PBE-1.0.UPF

CELL_PARAMETERS (angstrom)
12.0    0.0 0.0
0.0 12.0    0.0
0.0 0.0 15.0

ATOMIC_POSITIONS (angstrom)
Zn  6.0 6.0 5.0
Zn  6.0 6.0 10.0


EPCDFT
1 5e-5 1e-2 80
delta_charge 2 2 1 1 1.0 0.33

