&INPUTPP
prefix='zn_05_right'
outdir="out"
filplot = 'right.sdd'
plot_num = 6
/
&PLOT
iflag = 3
output_format = 6
fileout = 'right.cube'
/
