&CONTROL
  calculation  = "scf",
  prefix       = "h2o",
  outdir       = "./out",
  pseudo_dir   = "../pseudo",
  do_epcdft    = .true.,
  tefield      = .true.
/
&SYSTEM
  nosym = .true.
  ibrav     = 1,
  a         = 10,
  nat       = 6,
  ntyp      = 2,
  ecutwfc   = 90,
  tot_charge = -1
  nspin   = 2,
  tot_magnetization = 1
  fragment_atom1    = 1,
  fragment_atom2    = 3,
  epcdft_amp        = 0,
  epcdft_electrons  = 9.00
  input_dft='pbe'
/
&ELECTRONS
! startingpot = 'file'
! startingwfc = 'file'
  conv_thr    = 1.D-8,
!  mixing_beta = 0.30,
/
&IONS
/
K_POINTS {Gamma}

ATOMIC_SPECIES
H 1.00d0 H.pbe-mt_fhi.UPF
O 16.00d0 O.pbe-mt_fhi.UPF

ATOMIC_POSITIONS (angstrom)
O       -4.494348125   1.747211279  -0.299549731
H       -3.523120011   1.832175167  -0.246166235
H       -4.819902606   2.644588867  -0.171498114
O       -1.630458076   2.007317678  -0.151537967
H       -1.126066736   1.630589158   0.587684829
H       -1.091854447   1.809387850  -0.934652782
