&CONTROL
  calculation  = "scf",
  prefix       = "si",
  outdir       = "./out",
  pseudo_dir   = "../pseudo",
  do_epcdft    = .true.,
  tefield      = .true.
/
&SYSTEM
    nosym = .true.
    ibrav=0,
    nat=8, ntyp=1,
    ecutwfc=80.0,
    tot_charge = 0,
    nspin   = 2,
    tot_magnetization = 0.,
    fragment_atom1    = 1,
    fragment_atom2    = 1,
    epcdft_amp        = 0.0,
    epcdft_electrons  = 0.2,
    input_dft='pbe'
/
&ELECTRONS
! startingpot = 'file'
! startingwfc = 'file'
  conv_thr    = 1.D-8,
!  mixing_beta = 0.30,
/

ATOMIC_SPECIES
 Si  28.086  Si.pbe-mt_fhi.UPF

CELL_PARAMETERS (angstrom)
 5.430    0.000    0.000
 0.000    5.430    0.000
 0.000    0.000    5.430

ATOMIC_POSITIONS (angstrom)
Si  0.000   0.000   0.000
Si  0.000   2.715   2.715
Si  2.715   2.715   0.000
Si  2.715   0.000   2.715
Si  4.072   1.358   4.072
Si  1.357   1.357   1.357
Si  1.358   4.072   4.072
Si  4.072   4.072   1.357

K_POINTS gamma
