&INPUTPP
  prefix       = "si",
  outdir       = "./out",
/
