&INPUTPP
prefix = 'si'
outdir = './out'
filplot = 'well'
plot_num = 12
/
&PLOT
iflag = 3
output_format = 6
fileout = 'well.cube'
/
