&CONTROL
  calculation  = "scf",
  prefix       = "si",
  pseudo_dir   = "./",
  outdir       = "./out",
!  wf_collect   = .TRUE.
  tefield = .true.
/
&SYSTEM
  ibrav     = 1, 
  a = 7,
  nat       = 2,	
  ntyp      = 2,
  ecutwfc   = 20,
  ecutrho   = 200,
   nspin     = 2,
   tot_magnetization = 0
  edir = 1,
  emaxpos = 1,
  eamp = -1,
  eopreg = 0.5
/
&ELECTRONS
  conv_thr    = 1.D-6,
  mixing_beta = 0.30,
/
&IONS
/
K_POINTS {Gamma}
ATOMIC_SPECIES
Cl 0 Cl.pbe-n-van.UPF
Na 0 Na.pbe-sp-van_ak.UPF
ATOMIC_POSITIONS (angstrom)
Cl 0    0 0
Na 2.36 0 0
