&CONTROL 
  outdir = 'out'  
  prefix = 'left' 
  calculation  = "scf",
  pseudo_dir   = "./",
  wf_collect   = .TRUE.
  verbosity    = "high"
/
&SYSTEM
  ibrav     = 8,
  a         = 17,
  b         = 17,
  c         = 17,
  nat       = 2,
  ntyp      = 1,
  nbnd      = 26,
  ecutwfc   = 70,
  assume_isolated = 'mt',
  tot_charge = +1,
  nspin     = 2,
  tot_magnetization = 1
  nosym = .true.
/
&ELECTRONS 
  electron_maxstep = 300
  conv_thr    = 1.D-10,
  diago_full_acc = .true.
! mixing_beta = 0.50,
/
&IONS
/
&CELL
/
EPCDFT 
 1 1.0E-06 0.05D0 50
 delta_charge 1 1 2 2 1.0 0.10 
K_POINTS {Gamma}
ATOMIC_SPECIES
Zn 1.0 Zn_ONCV_PBE-1.0.UPF
ATOMIC_POSITIONS (angstrom)
Zn 5.0 5.0 8.0
Zn 5.0 5.0 6.0
