&INPUTPP
  prefix       = "left",
  outdir       = "./out",
  prefix2      = "right",
  outdir2      = "./out",
  occup1       = 19
  occup2       = 19
  occdown1     = 18
  occdown2     = 18
  debug        = .true.
  s_spin       = .true.
  det_by_zgedi = .true.
  free1 = -102.76170672
  free2 = -114.44868247
  cor1 =  -0.2600775530833208E+01 
  cor2 =  0.9338585909596690E+01
/
