&CONTROL
  calculation  = "scf",
  prefix       = "left",
  outdir       = "./out",
  pseudo_dir   = "../../pseudo",
  verbosity = "high" 
  wf_collect = .true.
/
&SYSTEM
  nosym = .true.
  nbnd = 14
  ibrav = 1,
  a = 12,
  nat = 2,
  ntyp = 1,
  ecutwfc = 50,
  tot_charge = +1
  nspin = 2,
  tot_magnetization = 1
/
&ELECTRONS
 ! startingpot = 'file'
 ! startingwfc = 'file'
  conv_thr    = 1.D-7,
  mixing_beta = 0.30,
/
EPCDFT
1 1.D+2 1.D-2 100 .true.
delta_charge 1 1 2 2 0.0 0.0

K_POINTS {Gamma}

ATOMIC_SPECIES
Zn 0.0 Zn.pbe-mt_fhi.UPF
ATOMIC_POSITIONS (angstrom)
Zn 5 5 4
Zn 5 5 2
