&CONTROL
  calculation  = "scf",
  prefix       = "left",
  outdir       = "./out",
  pseudo_dir   = "../../pseudo",
  verbosity = "high" 
  wf_collect = .true.
/
&SYSTEM
  nosym = .true.
  nbnd = 14
  ibrav = 1,
  a = 12,
  nat = 2,
  ntyp = 1,
  ecutwfc = 50,
  tot_charge = +1
  nspin = 2,
  tot_magnetization = 1 
 assume_isolated = 'esm' 
 esm_bc = 'bc3' 
 esm_w = 11.33835 
 esm_efield = 0.0 
/
&ELECTRONS
 ! startingpot = 'file'
 ! startingwfc = 'file'
  conv_thr    = 1.D-7,
  mixing_beta = 0.30,
/




K_POINTS {Gamma}

ATOMIC_SPECIES
Zn 0.0 Zn.pbe-mt_fhi.UPF
ATOMIC_POSITIONS (angstrom)
Zn 5 5 5
Zn 5 5 3
