&INPUTPP
  prefix       = "left",
  outdir       = "./out",
  prefix2      = "right",
  outdir2      = "./out",
  occup1       = 19
  occup2       = 19
  occdown1     = 18
  occdown2     = 18
  debug        = .true.
  eig_of_w     = .false.
  s_spin       = .true.
  free1 = -102.77550902
  free2 = -114.42630204
  cor1 =  -2.58534305 
  cor2 =  9.31756345
/
