&CONTROL
  calculation  = "relax",
  prefix       = "left",
  outdir       = "./out",
  pseudo_dir   = "../pseudo",
  do_epcdft    = .true.,
  verbosity = "high" 
  wf_collect = .true.
/
&SYSTEM
  nosym = .true.
  ibrav     = 1,
  a         = 12,
  nat       = 2,
  ntyp      = 1,
  ecutwfc   = 60,
  nbnd= 4,
  nspin   = 2,
  tot_charge = 0
  tot_magnetization = 0

/
&ELECTRONS
!  startingpot = 'file'
!  startingwfc = 'file'
!  conv_thr    = 1.D-8,
  mixing_beta = 0.30,
/
&IONS
/

EPCDFT 
1 2e-2 1e-3
delta_charge 1 1 2 2 2.0 1.136

ATOMIC_SPECIES
H 0.0 H.pbe-mt_fhi.UPF

ATOMIC_POSITIONS (angstrom)
H 0 0 0
H 5 0 0

K_POINTS {Gamma}
