&INPUTPP
  prefix       = "left",
  outdir       = "./out",
  prefix2      = "right",
  outdir2      = "./out",
  occup1       = 12
  occup2       = 12
  occdown1     = 11
  occdown2     = 11
  debug        = .true.
  s_spin       = .true.
  det_by_zgedi = .true.
  free1 = -220.92552944 
  free2 = -220.92552947
  cor1 = 0.329648974996089
  cor2 = 0.329649049078279
/
