&INPUTPP
  prefix       = "left",
  outdir       = "./out",
  prefix2      = "right",
  outdir2      = "./out",
  occup1       = 19
  occup2       = 19
  occdown1     = 18
  occdown2     = 18
  debug        = .true.
  s_spin       = .true.
  free1 = -102.78140135
  free2 = -114.41789132
  cor1 =  -0.2581300235404349E+01 
  cor2 =  0.9307134935461768E+01
  eig_of_w = .true.
/
