&INPUTPP
prefix = 'left'
outdir = './out'
filplot = 'left'
plot_num = 6,
/
&PLOT
iflag = 3
output_format = 6
fileout = 'left_spin_den.cube'
/

