&CONTROL
  calculation  = "scf",
  prefix       = "right",
  outdir       = "./out",
  pseudo_dir   = "../pseudo",
  verbosity = "high" 
  wf_collect = .true.
/
&SYSTEM
  nosym = .true.
  ibrav     = 1,
  a         = 10,
  nat       = 18,
  ntyp      = 4,
  ecutwfc   = 30,
! nbnd= 4,
  nspin   = 2,
  tot_charge = +1
  tot_magnetization = 1

/
&ELECTRONS
!  startingpot = 'file'
!  startingwfc = 'file'
! conv_thr    = 1.D-8,
  mixing_beta = 0.30,
/
&IONS
/

EPCDFT 
1 1e-3 1e-2
delta_charge 1 9 10 18 -1.0 -0.200

ATOMIC_SPECIES
H 0.0 H.pbe-mt_fhi.UPF
C 0.0 C.pbe-mt_fhi.UPF
S 0.0 S.pbe-mt_fhi.UPF
N 0.0 N.pbe-mt_fhi.UPF

K_POINTS {Gamma}
ATOMIC_POSITIONS (angstrom)
C 2.500000 0.712216 1.317857
C 2.500000 1.240098 0.048105
S 2.500000 0.000000 -1.147325
C 2.500000 -1.240098 0.048105
C 2.500000 -0.712216 1.317857
H 2.500000 2.284126 -0.249920
H 2.500000 1.322934 2.219208
H 2.500000 -1.322934 2.219208
H 2.500000 -2.284126 -0.249920
C -2.500000 -0.953764 -0.669637 
C -2.500000  0.342648 -1.134477  
N -2.500000  1.130379 0.000014   
C -2.500000  0.290053 1.081779   
N -2.500000  -0.977218 0.709814  
H -2.500000  0.767701 -2.131518  
H -2.500000  0.656251 2.104401   
H -2.500000 -1.870393 -1.251319 
H -2.500000  2.143835 0.021901   
