&INPUTPP
prefix = 'right'
outdir = './out'
filplot = 'right'
plot_num = 6,
/
&PLOT
iflag = 3
output_format = 6
fileout = 'right_spin_den.cube'
/

