&INPUTPP
prefix = 'left'
outdir = './out'
filplot = 'left'
plot_num = 6,
spin_component=0
/
&PLOT
iflag = 3
output_format = 6
fileout = 'leftsd.cube'
/

