&INPUTPP
prefix = 'right'
outdir = './out'
filplot = 'right'
plot_num = 6,
spin_component=0
/
&PLOT
iflag = 3
output_format = 6
fileout = 'rightsds.cube'
/

