&INPUTPP
  prefix       = "left",
  outdir       = "./out",
  prefix2      = "right",
  outdir2      = "./out",
  occup1       = 12
  occup2       = 12
  occdown1     = 11
  occdown2     = 11
  debug        = .true.
  s_spin       = .true.
  det_by_zgedi = .true.
  free1 = -220.93250439 
  free2 = -220.93250491
  cor1 =  0.329970828832492
  cor2 =  0.329970796276793
/
