&INPUTPP
  prefix       = "left",
  outdir       = "./out",
  prefix2      = "right",
  outdir2      = "./out",
  occup1       = 12
  occup2       = 12
  occdown1     = 11
  occdown2     = 11
  debug        = .true.
  s_spin       = .true.
  det_by_zgedi = .true.
free1=-220.99809136
free2=-220.99809136
cor1=0.329684884473085
cor2=0.329684860306024

/
