&CONTROL
  calculation  = "scf",
  prefix       = "si",
  pseudo_dir   = "../pseudo",
  outdir       = "./out",
!  wf_collect   = .TRUE.
  tefield = .true.
  do_epcdft = .true.
/
&SYSTEM
  ibrav     = 1,
  a = 7,
  nat       = 5,
  ntyp      = 2,
  ecutwfc   = 18,
  !ecutrho   = 300,
   nspin     = 2,
   tot_magnetization = 0
  fragment_atom1    = 1,    
  fragment_atom2    = 0,    ! set to max atom in fragment
  epcdft_amp        = -1, !ampl in rydberg
  epcdft_electrons  = 1.0    ! electrons at the site
  epcdft_width = 2.645616384
  epcdft_thr=1e-6 
/
&ELECTRONS
  conv_thr    = 1.D-10,
  mixing_beta = 0.30,
/
&IONS
/
K_POINTS {Gamma}
ATOMIC_SPECIES
Si 28.0855 Si.pbe-n-van.UPF
H 1.00794 H.pbe-rrkjus.UPF
ATOMIC_POSITIONS (angstrom)
Si        -0.19448        2.43790        0.00000
H          1.27605        2.43790       -0.00000
H         -0.68466        3.14888        1.19025
H         -0.68466        1.05163        0.02060
H         -0.68466        3.11319       -1.21085
