&CONTROL
  calculation  = "scf",
  prefix       = "si2",
  pseudo_dir   = "./",
  outdir       = "./out2",
!  wf_collect   = .TRUE.
  tefield = .true.
/
&SYSTEM
  ibrav     = 1,
  a         = 7,
  nat       = 5,
  ntyp      = 2,
  ecutwfc   = 40,
  !ecutrho  = 300,
   nspin   = 2,
   tot_magnetization = 0
  edir = 1,
  emaxpos = 0.2,
  eamp = -1.676,
  eopreg = 6
/
&ELECTRONS
  conv_thr    = 1.D-6,
  mixing_beta = 0.30,
/
&IONS
/
K_POINTS {Gamma}
ATOMIC_SPECIES
Si 28.0855 Si.pbe-rrkj.UPF
H 1.00794 H_HSCV_PBE-1.0.UPF
ATOMIC_POSITIONS (angstrom)
Si        -0.19448        2.43790        0.00000
H          1.27605        2.43790       -0.00000
H         -0.68466        3.14888        1.19025
H         -0.68466        1.05163        0.02060
H         -0.68466        3.11319       -1.21085
