&INPUTPP
  prefix       = "si",
  outdir       = "./out",
  prefix2       = "si2",
  outdir2       = "./out2",
/
