&INPUTPP
prefix='zn_05_left'
prefix2='zn_05_right'
outdir='./'
outdir2='./'
  occup1       = 20
  occup2       = 20
  occdown1     = 19
  occdown2     = 19
  debug        = .true.
  eig_of_w     = .false.
  s_spin       = .true.
  free1 = 
  free2 = 
  cor1 =   
  cor2 =  
/
