&INPUTPP
  prefix       = "left",
  outdir       = "./out",
  prefix2      = "right",
  outdir2      = "./out",
  occup1       = 12
  occup2       = 12
  occdown1     = 11
  occdown2     = 11
  debug        = .true.
  s_spin       = .true.
  det_by_zgedi = .true.
  free1 =-221.03016522
  free2 =-221.03016522
  cor1  = 0.331929854612893
  cor2  = 0.331929398673821
/
