&INPUTPP
  prefix       = "left",
  outdir       = "./out",
  prefix2      = "right",
  outdir2      = "./out",
  occup1       = 12
  occup2       = 12
  occdown1     = 11
  occdown2     = 11
  debug        = .true.
  s_spin       = .true.
  det_by_zgedi = .true.
  free1 = -220.93039176 
  free2 = -220.93039176
  cor1 = 0.330267731545316
  cor2 = 0.330267471603819
/
