&INPUTPP
prefix='zn_05_left'
prefix2='zn_05_right'
outdir='./'
outdir2='./'
  occup1       = 20
  occup2       = 20
  occdown1     = 19
  occdown2     = 19
  debug        = .true.
  eig_of_w     = .false.
  s_spin       = .true.
  free1 = -800.11574730
  free2 = -800.11630996
  cor1 =  0.32848614 
  cor2 =  0.32840411
/
