&CONTROL
  calculation  = "scf",
  prefix       = "benzene",
  outdir       = "./out",
  pseudo_dir   = "../../../pseudo",
  do_epcdft    = .true.,
  verbosity = "high" 
  wf_collect = .true.
/
&SYSTEM
  nosym = .true.
  ibrav     = 1,
  a         = 10,
  nat       = 13,
  ntyp      = 3,
  ecutwfc   = 80,
  tot_charge = 0
  nspin   = 2,
  tot_magnetization = 1
  hirshfeld = .TRUE.
  fragment_atom1    = 1,
  fragment_atom2    = 12,
  epcdft_amp        = 8.5018E-02,
  epcdft_electrons  = 0.,
  epcdft_thr = 1.0E-02
/
&ELECTRONS
 ! startingpot = 'file'
 ! startingwfc = 'file'
  conv_thr    = 1.D-8,
  mixing_beta = 0.30,
/
K_POINTS {Gamma}

ATOMIC_SPECIES
H  0.00d0 H.pbe-mt_fhi.UPF
Cl 0.00d0 Cl.pbe-mt_fhi.UPF
C  0.00d0 C.pbe-mt_fhi.UPF

ATOMIC_POSITIONS (angstrom)
C    1.39716643989    -1.52939510416e-09    0.0
C    0.698726255586    1.21034583567    0.0
C    -0.698726257814    1.21034584047    0.0
C    -1.39716643621    -1.52939510416e-09    0.0
C    -0.698726252414    -1.21034583353    0.0
C    0.698726254286    -1.21034583733    0.0
H    2.48839065409    -1.38293951042e-08    0.0
H    1.24464648369    2.15514093997    0.0
H    -1.24464651971    2.15514093387    0.0
H    -2.48839065021    5.97060489584e-09    0.0
H    -1.24464647081    -2.15514094163    0.0
H    1.24464646349    -2.15514095083    0.0
Cl    0    1.21034583567    3

