&INPUTPP
  prefix       = "benzene",
  outdir       = "./out",
  prefix2      = "cl",
  outdir2      = "./out",
  occup1       = 19
  occup2       = 19
  occdown1     = 18
  occdown2     = 18
  debug        = .true.
  s_spin       = .true.
  det_by_zgedi = .true.
  free1 =-107.60956130
  free2 =-103.02921266
  cor1  = 2.22946750116642
  cor2  = -2.33438719109741
/
