&INPUTPP
prefix = "left",
prefix2 = "right",
outdir = "./out",
outdir2 = "./out",
/
