&INPUTPP
  prefix       = "left",
  outdir       = "./out",
  prefix2      = "right",
  outdir2      = "./out",
  occup1       =  
  occup2       =  
  occdown1     =  
  occdown2     =  
  debug        = .true.
  s_spin       = .true.
  det_by_zgedi = .true.
  free1 = 
  free2 =
  cor1 = 
  cor2 =
/
