&control
    calculation='scf'
    pseudo_dir = '../pseudo',
    outdir='./out'
    prefix='left'
    wf_collect = .true.
    verbosity = "high" 
/
&system
    ibrav=1, 
    a = 10, 
    nat=13, 
    ntyp=3,
    ecutwfc = 80.d0, 
    nbnd=40,
    nosym=.true.
    nspin = 2,
    tot_charge = -1
    tot_magnetization = 0
    assume_isolated = 'mt'
/ 
&electrons 
    startingwfc = 'random'
    diago_full_acc=.true.
    conv_thr = 1.D-8
    diagonalization = 'cg'
/ 

EPCDFT 
1 1e-5 5e-2 100
delta_charge 1 12 13 13 2.0 0.436

ATOMIC_SPECIES 
C   12.0107  C.pbe-mt_fhi.UPF 
H   1.00794  H.pbe-mt_fhi.UPF 
Cl  1.0     Cl.pbe-mt_fhi.UPF 
K_POINTS {Gamma}
ATOMIC_POSITIONS {angstrom} 
C       0.0000   1.3970 0.0000 
C       1.2098   0.6985 0.0000 
C       1.2098  -0.6985 0.0000 
C       0.0000  -1.3970 0.0000 
C      -1.2098  -0.6985 0.0000 
C      -1.2098   0.6985 0.0000 
H       0.0000   2.4810 0.0000 
H       2.1486   1.2405 0.0000 
H       2.1486  -1.2405 0.0000 
H       0.0000  -2.4810 0.0000 
H      -2.1486  -1.2405 0.0000 
H      -2.1486   1.2405 0.0000 
Cl      0.6049 1.04775  3.0000
