&INPUTPP
  prefix       = "zn",
  outdir       = "./out",
  prefix2      = "zn2",
  outdir2      = "./out2",
  occup1       = 12
  occup2       = 12
  occdown1     = 11
  occdown2     = 11
  debug        = .false.
  s_spin       = .true.
  det_by_zgedi = .true.
  do_epcdft = .true.
  fragment1_atom1 = 1
  fragment1_atom2 = 1
  fragment2_atom1 = 1
  fragment2_atom2 = 1
  fragment1_amp   = -5.2000E-01
  fragment2_amp   = 0.0
/
