&INPUTPP
  prefix       = "zn",
  outdir       = "./out",
  prefix2       = "zn2",
  outdir2       = "./out2",
/
