&CONTROL
  calculation  = "scf",
  prefix       = "zn",
  pseudo_dir   = "./",
  outdir       = "./out",
!  wf_collect   = .TRUE.
!  restart_mode = 'restart'
  tefield = .true.
/
&SYSTEM
  nosym = .true.
  ibrav     = 1,
  a         = 10,
  nat       = 2,
  ntyp      = 1,
  ecutwfc   = 110,
  !ecutrho  = 300,
  assume_isolated='mp'
  tot_charge = +1
  nspin   = 2,
  tot_magnetization = 1
  edir = 1,
  emaxpos = 0.25,
  eamp = -0.52,
  eopreg = 12
/
&ELECTRONS
 ! startingpot = 'file'
 ! startingwfc = 'file'
  conv_thr    = 1.D-8,
  mixing_beta = 0.30,
/
&IONS
/
K_POINTS {Gamma}
ATOMIC_SPECIES
Zn 0.0 Zn.pbe-mt_fhi.UPF
ATOMIC_POSITIONS (angstrom)
Zn 0 0 0
Zn 5 0 0
