&CONTROL
  calculation  = "scf",
  prefix       = "zn2",
  pseudo_dir   = "./",
  outdir       = "./out2",
  do_epcdft    = .true.,
  tefield = .true.
/
&SYSTEM
  nosym = .true.
  ibrav     = 1,
  a         = 10,
  nat       = 2,
  ntyp      = 1,
  ecutwfc   = 110,
  tot_charge = +1
  nspin   = 2,
  tot_magnetization = 1
  fragment_atom1    = 1,
  fragment_atom2    = 1,
  epcdft_amp        = 0,
  epcdft_electrons  = 0
/
&ELECTRONS
 ! startingpot = 'file'
 ! startingwfc = 'file'
  conv_thr    = 1.D-8,
  mixing_beta = 0.30,
/
&IONS
/
K_POINTS {Gamma}
ATOMIC_SPECIES
Zn 0.0 Zn.pbe-mt_fhi.UPF
ATOMIC_POSITIONS (angstrom)
Zn 0 0 0
Zn 5 0 0
