&CONTROL
  calculation  = "scf",
  prefix       = "hirshfeld",
  outdir       = "./out",
  pseudo_dir   = "../pseudo",
  do_epcdft    = .true.,
  verbosity = "high" 
  wf_collect = .true.
/
&SYSTEM
  nosym = .true.
  ibrav     = 1,
  a         = 10,
  nat       = 2,
  ntyp      = 1,
  ecutwfc   = 90,
  tot_charge = +1
  nspin   = 2,
  tot_magnetization = 1
  hirshfeld = .TRUE.
donor_start=1
donor_end=1
acceptor_start=2
acceptor_end=2
  epcdft_amp        = 3.60E-01,
  epcdft_charge  = 1.,
  epcdft_thr = 1e-2
  epcdft_delta_fld = 0.05D0
/
&ELECTRONS
 ! startingpot = 'file'
 ! startingwfc = 'file'
  conv_thr    = 1.D-8,
  mixing_beta = 0.30,
/
K_POINTS {Gamma}

ATOMIC_SPECIES
Zn 0.0 Zn.pbe-mt_fhi.UPF
ATOMIC_POSITIONS (angstrom)
Zn 0 0 0
Zn 5 0 0
