&INPUTPP
prefix = 'hirshfeld'
outdir = './out'
plot_num = 12,
/
&PLOT
iflag = 3
output_format = 6
fileout = 'hirsh_poten.cube'
/
