&INPUTPP
prefix = 'zn'
outdir = './out'
filplot = 'wfc_spin1_band12'
plot_num = 7
kpoint = 1
kband = 12
lsign = .False.
/
&PLOT
iflag = 3
output_format = 6
fileout = 'wfc_spin1_band12.cube'
/
