&CONTROL
  calculation  = "scf",
  prefix       = "zn",
  outdir       = "./out",
  pseudo_dir   = "../pseudo",
  verbosity = "high" 
/
&SYSTEM
  nosym = .true.
  ibrav     = 1,
  a         = 10,
  nat       = 2,
  ntyp      = 1,
  ecutwfc   = 60,
  tot_charge = +1
  nspin   = 2,
  tot_magnetization = 1
/
&ELECTRONS
  startingpot = 'file'
  startingwfc = 'file'
  conv_thr    = 1.D+10,
  mixing_beta = 0.30,
/
K_POINTS {Gamma}

ATOMIC_SPECIES
Zn 0.0 Zn.pbe-mt_fhi.UPF
ATOMIC_POSITIONS (angstrom)
Zn 0 0 0
Zn 5 0 0
