&INPUTPP
prefix = 'voronoi'
outdir = './out'
plot_num = 7
kpoint = 1
kband = 12
lsign = .False.
/
&PLOT
iflag = 3
output_format = 6
fileout = 'voro_homo.cube'
/
